; 
(set-info :status unknown)
(declare-fun node_0x7ffff2baa200 () (_ BitVec 64))
(declare-fun node_0x7ffff2b84430 () (_ BitVec 1))
(declare-fun node_0x7ffff2b84700 () (_ BitVec 1))
(declare-fun node_0x7ffff2b85d10 () (_ BitVec 1))
(declare-fun node_0x7ffff2b868b0 () (_ BitVec 1))
(declare-fun node_0x7ffff2b874e0 () (_ BitVec 1))
(declare-fun node_0x7ffff2b8c520 () (_ BitVec 1))
(declare-fun node_0x7ffff2b8e5c0 () (_ BitVec 1))
(declare-fun node_0x7ffff2b91e50 () (_ BitVec 1))
(declare-fun node_0x7ffff2b955b0 () (_ BitVec 1))
(declare-fun node_0x7ffff2b97e60 () (_ BitVec 1))
(declare-fun node_0x7ffff2b9a9c0 () (_ BitVec 1))
(declare-fun node_0x7ffff2b9b7b0 () (_ BitVec 1))
(declare-fun node_0x7ffff2b9e680 () (_ BitVec 1))
(declare-fun node_0x7ffff2bc2df0 () (_ BitVec 32))
(declare-fun islt_0x7ffff2be7e30 () (_ BitVec 1))
(declare-fun node_0x7ffff2bc21e0 () (_ BitVec 32))
(declare-fun islt_0x7ffff2be8250 () (_ BitVec 1))
(declare-fun node_0x7ffff2bc15c0 () (_ BitVec 32))
(declare-fun islt_0x7ffff2be8e60 () (_ BitVec 1))
(declare-fun islt_0x7ffff2beaa70 () (_ BitVec 1))
(declare-fun islt_0x7ffff2bf04e0 () (_ BitVec 1))
(declare-fun ccso_node_0x7ffff2bfd690 () (_ BitVec 32))
(declare-fun ieq_0x7ffff2bfd8b0 () (_ BitVec 1))
(declare-fun and_0x7ffff2c02890 () (_ BitVec 1))
(declare-fun carg_node_0x7ffff2b83740 () (_ BitVec 32))
(declare-fun ine_0x7ffff2c02530 () (_ BitVec 1))
(declare-fun node_0x7ffff2c023c0 () (_ BitVec 1))
(declare-fun node_0x7ffff2c01ea0 () (_ BitVec 1))
(declare-fun carg_node_0x7ffff2b835c0 () (_ BitVec 32))
(declare-fun ccso_node_0x7ffff2c01cb0 () (_ BitVec 32))
(declare-fun isgt_0x7ffff2c02020 () (_ BitVec 1))
(declare-fun ine_0x7ffff2bf55d0 () (_ BitVec 1))
(declare-fun node_0x7ffff2bf5230 () (_ BitVec 64))
(declare-fun LdMem_0x7ffff2bf5390 () (_ BitVec 64))
(declare-fun node_0x7ffff2be77e0 () (_ BitVec 64))
(declare-fun StMem_0x7ffff2be7b00 () (_ BitVec 64))
(declare-fun bitcast_0x7ffff2be7940 () (_ BitVec 64))
(declare-fun node_0x7ffff2be4560 () (_ BitVec 64))
(declare-fun bitcast_0x7ffff2be4700 () (_ BitVec 64))
(declare-fun ccso_node_0x7ffff2be4200 () (_ BitVec 64))
(declare-fun ccso_node_0x7ffff2bdefd0 () (_ BitVec 64))
(declare-fun StMem_0x7ffff2bdfbe0 () (_ BitVec 64))
(declare-fun StMem_0x196face0 () (_ BitVec 64))
(declare-fun StMem_0x196eb7c0 () (_ BitVec 64))
(declare-fun and_0xbec9050 () (_ BitVec 1))
(declare-fun R0xbec8be0 () (_ BitVec 1))
(declare-fun R0xbec85c0 () (_ BitVec 1))
(declare-fun R0xbea8520 () (_ BitVec 1))
(declare-fun R0xbec7ff0 () (_ BitVec 1))
(declare-fun R0xbe9eb10 () (_ BitVec 1))
(declare-fun and_0xbec89d0 () (_ BitVec 1))
(declare-fun and_0xbec9d00 () (_ BitVec 1))
(declare-fun R0xbec98b0 () (_ BitVec 1))
(declare-fun R0xbec9260 () (_ BitVec 1))
(declare-fun and_0xbec9630 () (_ BitVec 1))
(declare-fun R0xbeaa380 () (_ BitVec 1))
(declare-fun and_0xbec8340 () (_ BitVec 1))
(declare-fun R0xbec7b30 () (_ BitVec 1))
(declare-fun R0xbec6760 () (_ BitVec 1))
(declare-fun R0xbeb7740 () (_ BitVec 1))
(declare-fun xor_0xbec7d10 () (_ BitVec 1))
(declare-fun R0xbec42b0 () (_ BitVec 1))
(declare-fun and_0xbec65a0 () (_ BitVec 1))
(declare-fun R0xbec60f0 () (_ BitVec 1))
(declare-fun R0xbec7330 () (_ BitVec 1))
(declare-fun and_0xbec7920 () (_ BitVec 1))
(declare-fun R0xbec6b20 () (_ BitVec 1))
(declare-fun R0xbea7b50 () (_ BitVec 1))
(declare-fun R0xbe94da0 () (_ BitVec 1))
(declare-fun and_0xbea8840 () (_ BitVec 1))
(declare-fun and_0xbec70b0 () (_ BitVec 1))
(declare-fun xor_0xbec6940 () (_ BitVec 1))
(declare-fun and_0xbec4780 () (_ BitVec 1))
(declare-fun R0x7ffff2b8bbf0 () (_ BitVec 1))
(declare-fun and_0x7ffff2b8c0b0 () (_ BitVec 1))
(declare-fun R0x7ffff2b8b890 () (_ BitVec 1))
(declare-fun R0x7ffff2b89ff0 () (_ BitVec 1))
(declare-fun and_0x7ffff2b8a470 () (_ BitVec 1))
(declare-fun R0x7ffff2b89ad0 () (_ BitVec 1))
(declare-fun R0x7ffff2b88600 () (_ BitVec 1))
(declare-fun node_0x7ffff2b88d60 () (_ BitVec 1))
(declare-fun xor_0x7ffff2b89ce0 () (_ BitVec 1))
(declare-fun node_0x7ffff2b8b6a0 () (_ BitVec 1))
(declare-fun and_0x7ffff2be1470 () (_ BitVec 1))
(declare-fun ine_0x7ffff2be1120 () (_ BitVec 1))
(declare-fun node_0x7ffff2be0f80 () (_ BitVec 1))
(declare-fun node_0x7ffff2be0a90 () (_ BitVec 1))
(declare-fun ccso_node_0x7ffff2be08a0 () (_ BitVec 32))
(declare-fun isgt_0x7ffff2be0c10 () (_ BitVec 1))
(declare-fun and_0xbeb7b40 () (_ BitVec 1))
(declare-fun R0x7ffff2b892b0 () (_ BitVec 1))
(declare-fun and_0x7ffff2b896c0 () (_ BitVec 1))
(declare-fun R0x7ffff2b88f50 () (_ BitVec 1))
(declare-fun ccso_node_0x7ffff2bdc410 () (_ BitVec 32))
(declare-fun ieq_0x7ffff2bdc630 () (_ BitVec 1))
(declare-fun and_0x7ffff2b889d0 () (_ BitVec 1))
(declare-fun node_0x7ffff2b880b0 () (_ BitVec 1))
(declare-fun R0x7ffff2b882a0 () (_ BitVec 1))
(declare-fun ine_0x7ffff2bda930 () (_ BitVec 1))
(declare-fun node_0x7ffff2bda590 () (_ BitVec 64))
(declare-fun LdMem_0x7ffff2bda6f0 () (_ BitVec 64))
(declare-fun pcso_node_0x196fab30 () (_ BitVec 64))
(declare-fun pcso_node_0x196eb680 () (_ BitVec 64))
(declare-fun and_0xbeaa1c0 () (_ BitVec 1))
(declare-fun R0xbea9f80 () (_ BitVec 1))
(declare-fun R0xbeaa7b0 () (_ BitVec 1))
(declare-fun and_0xbeaab40 () (_ BitVec 1))
(declare-fun xor_0xbeaa560 () (_ BitVec 1))
(declare-fun R0x7ffff2b83ef0 () (_ BitVec 1))
(declare-fun and_0xbe9ee30 () (_ BitVec 1))
(declare-fun R0x7ffff2b87990 () (_ BitVec 1))
(declare-fun and_0x7ffff2b87d20 () (_ BitVec 1))
(declare-fun R0x7ffff2b876a0 () (_ BitVec 1))
(declare-fun islt_0x7ffff2bd98c0 () (_ BitVec 1))
(declare-fun f2si_0x7ffff2bc2f90 () (_ BitVec 32))
(declare-fun node_0x7ffff2bc2a20 () (_ BitVec 64))
(declare-fun fadd_0x7ffff2bc2bc0 () (_ BitVec 64))
(declare-fun node_0x7ffff2bc2620 () (_ BitVec 64))
(declare-fun fdiv_0x7ffff2bc27c0 () (_ BitVec 64))
(declare-fun node_0x7ffff2bbbd50 () (_ BitVec 64))
(declare-fun node_0x7ffff2bb8480 () (_ BitVec 64))
(declare-fun fsub_0x7ffff2bb8620 () (_ BitVec 64))
(declare-fun LdMem_0x7ffff2bb81b0 () (_ BitVec 64))
(declare-fun node_0x7ffff2bb8010 () (_ BitVec 64))
(declare-fun pcso_node_0xbdb5b20 () (_ BitVec 64))
(declare-fun StMem_0xbdb5ca0 () (_ BitVec 64))
(declare-fun R0x7ffff2b827c0 () (_ BitVec 1))
(declare-fun node_0x7ffff2bb77a0 () (_ BitVec 64))
(declare-fun LdMem_0x7ffff2bb7940 () (_ BitVec 64))
(declare-fun pcso_node_0x196daff0 () (_ BitVec 64))
(declare-fun StMem_0xbdac0c0 () (_ BitVec 64))
(declare-fun R0x7ffff2b86dd0 () (_ BitVec 1))
(declare-fun and_0x7ffff2b87120 () (_ BitVec 1))
(declare-fun R0x7ffff2b86a70 () (_ BitVec 1))
(declare-fun islt_0x7ffff2bd9550 () (_ BitVec 1))
(declare-fun f2si_0x7ffff2bc2380 () (_ BitVec 32))
(declare-fun node_0x7ffff2bc1e30 () (_ BitVec 64))
(declare-fun fadd_0x7ffff2bc1fb0 () (_ BitVec 64))
(declare-fun node_0x7ffff2bc1a00 () (_ BitVec 64))
(declare-fun fdiv_0x7ffff2bc1ba0 () (_ BitVec 64))
(declare-fun node_0x7ffff2bb6fd0 () (_ BitVec 64))
(declare-fun fsub_0x7ffff2bb7170 () (_ BitVec 64))
(declare-fun LdMem_0x7ffff2bb6d00 () (_ BitVec 64))
(declare-fun node_0x7ffff2bb6b80 () (_ BitVec 64))
(declare-fun pcso_node_0xbda11c0 () (_ BitVec 64))
(declare-fun StMem_0xbd64aa0 () (_ BitVec 64))
(declare-fun node_0x7ffff2bb6300 () (_ BitVec 64))
(declare-fun LdMem_0x7ffff2bb6480 () (_ BitVec 64))
(declare-fun pcso_node_0x196daeb0 () (_ BitVec 64))
(declare-fun StMem_0xbda29e0 () (_ BitVec 64))
(declare-fun R0x7ffff2b86230 () (_ BitVec 1))
(declare-fun and_0x7ffff2b86540 () (_ BitVec 1))
(declare-fun R0x7ffff2b85ed0 () (_ BitVec 1))
(declare-fun R0x7ffff2b85620 () (_ BitVec 1))
(declare-fun or_0x7ffff2b85930 () (_ BitVec 1))
(declare-fun R0x7ffff2b84fe0 () (_ BitVec 1))
(declare-fun R0x7ffff2b848f0 () (_ BitVec 1))
(declare-fun xor_0x7ffff2b84b00 () (_ BitVec 1))
(declare-fun ccso_node_0x7ffff2bd6620 () (_ BitVec 32))
(declare-fun islt_0x7ffff2bd6840 () (_ BitVec 1))
(declare-fun and_0x7ffff2b85300 () (_ BitVec 1))
(declare-fun R0x7ffff2b84e00 () (_ BitVec 1))
(declare-fun xor_0x7ffff2b83a60 () (_ BitVec 1))
(declare-fun ccso_node_0x7ffff2bd8ac0 () (_ BitVec 32))
(declare-fun islt_0x7ffff2bd8ce0 () (_ BitVec 1))
(declare-fun islt_0x7ffff2bd9150 () (_ BitVec 1))
(declare-fun f2si_0x7ffff2bc1760 () (_ BitVec 32))
(declare-fun node_0x7ffff2bc1210 () (_ BitVec 64))
(declare-fun fadd_0x7ffff2bc1390 () (_ BitVec 64))
(declare-fun node_0x7ffff2bc0df0 () (_ BitVec 64))
(declare-fun fdiv_0x7ffff2bc0f90 () (_ BitVec 64))
(declare-fun fmul_0x7ffff2bbbeb0 () (_ BitVec 64))
(declare-fun ccso_node_0x7ffff2bbb910 () (_ BitVec 64))
(declare-fun node_0x7ffff2bba980 () (_ BitVec 64))
(declare-fun fdiv_0x7ffff2bbab20 () (_ BitVec 64))
(declare-fun LdMem_0x7ffff2bb8f40 () (_ BitVec 64))
(declare-fun node_0x7ffff2bb8dc0 () (_ BitVec 64))
(declare-fun node_0x7ffff2bb5b00 () (_ BitVec 64))
(declare-fun fsub_0x7ffff2bb5ca0 () (_ BitVec 64))
(declare-fun LdMem_0x7ffff2bb5830 () (_ BitVec 64))
(declare-fun node_0x7ffff2bb56b0 () (_ BitVec 64))
(declare-fun pcso_node_0xbd64880 () (_ BitVec 64))
(declare-fun StMem_0x19689e90 () (_ BitVec 64))
(declare-fun node_0x7ffff2bb4e90 () (_ BitVec 64))
(declare-fun LdMem_0x7ffff2bb5010 () (_ BitVec 64))
(declare-fun pcso_node_0x196dad70 () (_ BitVec 64))
(declare-fun StMem_0xbd62f80 () (_ BitVec 64))
(declare-fun node_0x19775050 () (_ BitVec 32))
(declare-fun parg_node_0x1151b690_CS0x404ac00 () (_ BitVec 32))
(declare-fun LdMem_0x19772c00 () (_ BitVec 32))
(declare-fun parg_node_0x197389a0 () (_ BitVec 32))
(declare-fun StMem_0x197387f0 () (_ BitVec 32))
(declare-fun pcso_node_0x1971b890 () (_ BitVec 32))
(declare-fun StMem_0x1971ba40 () (_ BitVec 32))
(declare-fun pcso_node_0x196fd890 () (_ BitVec 32))
(declare-fun StMem_0x196ffcf0 () (_ BitVec 32))
(declare-fun and_0xbeca760 () (_ BitVec 1))
(declare-fun R0xbeca090 () (_ BitVec 1))
(declare-fun R0xbeb5b90 () (_ BitVec 1))
(declare-fun or_0xbeb5f90 () (_ BitVec 1))
(declare-fun and_0xbeb5930 () (_ BitVec 1))
(declare-fun R0xbeb54b0 () (_ BitVec 1))
(declare-fun R0xbeb4000 () (_ BitVec 1))
(declare-fun R0xbea48a0 () (_ BitVec 1))
(declare-fun and_0xbeb42f0 () (_ BitVec 1))
(declare-fun R0xbeb2490 () (_ BitVec 1))
(declare-fun R0xbeae030 () (_ BitVec 1))
(declare-fun R0xbea3430 () (_ BitVec 1))
(declare-fun and_0xbeb2780 () (_ BitVec 1))
(declare-fun R0xbeb4e70 () (_ BitVec 1))
(declare-fun and_0xbeb5210 () (_ BitVec 1))
(declare-fun R0xbeb31d0 () (_ BitVec 1))
(declare-fun R0xbea41b0 () (_ BitVec 1))
(declare-fun and_0xbeb35a0 () (_ BitVec 1))
(declare-fun R0xbea3100 () (_ BitVec 1))
(declare-fun and_0xbeb2310 () (_ BitVec 1))
(declare-fun R0xbeb2130 () (_ BitVec 1))
(declare-fun R0xbeab3d0 () (_ BitVec 1))
(declare-fun and_0xbeae330 () (_ BitVec 1))
(declare-fun R0xbecb1c0 () (_ BitVec 1))
(declare-fun R0xbeb91b0 () (_ BitVec 1))
(declare-fun and_0xbed7ae0 () (_ BitVec 1))
(declare-fun R0xbed62c0 () (_ BitVec 1))
(declare-fun R0xbed87f0 () (_ BitVec 1))
(declare-fun and_0xbed8d00 () (_ BitVec 1))
(declare-fun R0xbed81d0 () (_ BitVec 1))
(declare-fun R0xbe9d6c0 () (_ BitVec 1))
(declare-fun and_0xbecb670 () (_ BitVec 1))
(declare-fun and_0xbed8520 () (_ BitVec 1))
(declare-fun R0xbed7ce0 () (_ BitVec 1))
(declare-fun xor_0xbed7ec0 () (_ BitVec 1))
(declare-fun and_0xbeb9780 () (_ BitVec 1))
(declare-fun R0x7ffff2b8ae50 () (_ BitVec 1))
(declare-fun and_0xbeab790 () (_ BitVec 1))
(declare-fun and_0x7ffff2b8b310 () (_ BitVec 1))
(declare-fun R0x7ffff2b8a930 () (_ BitVec 1))
(declare-fun xor_0x7ffff2b8ab40 () (_ BitVec 1))
(declare-fun node_0x7ffff2b8a740 () (_ BitVec 1))
(declare-fun ieq_0x7ffff2bdff80 () (_ BitVec 1))
(declare-fun node_0x7ffff2bdd820 () (_ BitVec 64))
(declare-fun bitcast_0x7ffff2bdd9c0 () (_ BitVec 64))
(declare-fun node_0x7ffff2bdd430 () (_ BitVec 64))
(declare-fun return_node_0x7ffff2c309b0_CS0x404ac00 () (_ BitVec 32))
(declare-fun node_0x19766810 () (_ BitVec 32))
(declare-fun parg_node_0x1151b690_CS0x404a7e0 () (_ BitVec 32))
(declare-fun LdMem_0x197643c0 () (_ BitVec 32))
(declare-fun return_node_0x7ffff2c309b0_CS0x404a7e0 () (_ BitVec 32))
(declare-fun node_0x196eeb60 () (_ BitVec 32))
(declare-fun parg_node_0x1151b690_CS0x4041bb0 () (_ BitVec 32))
(declare-fun LdMem_0x196eca10 () (_ BitVec 32))
(declare-fun parg_node_0x196dbd50 () (_ BitVec 32))
(declare-fun StMem_0x196dbc40 () (_ BitVec 32))
(declare-fun return_node_0x7ffff2c309b0_CS0x4041bb0 () (_ BitVec 32))
(declare-fun node_0x19704cf0 () (_ BitVec 32))
(declare-fun parg_node_0x1151b690_CS0x4049a80 () (_ BitVec 32))
(declare-fun LdMem_0x19702970 () (_ BitVec 32))
(declare-fun return_node_0x7ffff2c309b0_CS0x4049a80 () (_ BitVec 32))
(declare-fun node_0x1970e0c0 () (_ BitVec 32))
(declare-fun parg_node_0x1151b690_CS0x4043330 () (_ BitVec 32))
(declare-fun LdMem_0x1970bd40 () (_ BitVec 32))
(declare-fun return_node_0x7ffff2c309b0_CS0x4043330 () (_ BitVec 32))
(declare-fun node_0x1971c550 () (_ BitVec 32))
(declare-fun parg_node_0x1151b690_CS0x4044400 () (_ BitVec 32))
(declare-fun LdMem_0x1971a1d0 () (_ BitVec 32))
(declare-fun return_node_0x7ffff2c309b0_CS0x4044400 () (_ BitVec 32))
(assert
 (and (distinct node_0x7ffff2baa200 (_ bv0 64)) true))
(assert
 (let (($x170 (= node_0x7ffff2b84430 (_ bv1 1))))
 (let (($x182 (= node_0x7ffff2b84700 (_ bv1 1))))
 (let (($x185 (not $x182)))
 (let (($x181 (not $x170)))
 (let (($x186 (or $x181 (and $x185 $x170))))
 (let (($x172 (= node_0x7ffff2b85d10 (_ bv1 1))))
 (let (($x202 (and $x172 $x186)))
 (let (($x180 (= node_0x7ffff2b868b0 (_ bv1 1))))
 (let (($x282 (and $x180 $x202)))
 (let (($x192 (= node_0x7ffff2b874e0 (_ bv1 1))))
 (let (($x329 (and $x192 $x282)))
 (let (($x514 (= node_0x7ffff2b8c520 (_ bv1 1))))
 (let (($x696 (not $x514)))
 (let (($x455 (or (and (not $x192) $x282) (and $x696 $x329))))
 (let (($x1278 (or (and (not $x180) $x202) (and (not (= node_0x7ffff2b8e5c0 (_ bv1 1))) $x455))))
 (let (($x379 (= node_0x7ffff2b91e50 (_ bv1 1))))
 (let (($x1261 (and $x379 $x1278)))
 (let (($x892 (= node_0x7ffff2b955b0 (_ bv1 1))))
 (let (($x954 (and $x892 $x1261)))
 (let (($x1046 (= node_0x7ffff2b97e60 (_ bv1 1))))
 (let (($x1267 (and $x1046 $x954)))
 (let (($x427 (= node_0x7ffff2b9a9c0 (_ bv1 1))))
 (let (($x1299 (and $x427 $x1267)))
 (let (($x1289 (and (not (= node_0x7ffff2b9b7b0 (_ bv1 1))) $x1299)))
 (let (($x165 (= node_0x7ffff2b9e680 (_ bv1 1))))
 (and $x165 $x1289)))))))))))))))))))))))))))
(assert
 (let ((?x710 (ite (bvslt (_ bv1 32) node_0x7ffff2bc2df0) (_ bv1 1) (_ bv0 1))))
 (let (($x681 (= islt_0x7ffff2be7e30 ?x710)))
 (let (($x1817 (= node_0x7ffff2b8c520 islt_0x7ffff2be7e30)))
 (let ((?x577 (ite (bvslt (_ bv1 32) node_0x7ffff2bc21e0) (_ bv1 1) (_ bv0 1))))
 (let (($x535 (= islt_0x7ffff2be8250 ?x577)))
 (let (($x1366 (= node_0x7ffff2b8e5c0 islt_0x7ffff2be8250)))
 (let (($x928 (= islt_0x7ffff2be8e60 (ite (bvslt (_ bv1 32) node_0x7ffff2bc15c0) (_ bv1 1) (_ bv0 1)))))
 (let ((?x287 (ite (bvslt (_ bv0 32) node_0x7ffff2bc21e0) (_ bv1 1) (_ bv0 1))))
 (let (($x1266 (= islt_0x7ffff2beaa70 ?x287)))
 (let ((?x334 (ite (bvslt (_ bv0 32) node_0x7ffff2bc2df0) (_ bv1 1) (_ bv0 1))))
 (let (($x396 (= islt_0x7ffff2bf04e0 ?x334)))
 (let (($x872 (= ccso_node_0x7ffff2bfd690 (_ bv1 32))))
 (let ((?x965 (ite $x872 (_ bv1 1) (_ bv0 1))))
 (let (($x1077 (= ieq_0x7ffff2bfd8b0 ?x965)))
 (let (($x155749 (= node_0x7ffff2b9b7b0 ieq_0x7ffff2bfd8b0)))
 (let ((?x571 (ite (and (distinct carg_node_0x7ffff2b83740 (_ bv0 32)) true) (_ bv1 1) (_ bv0 1))))
 (let (($x1321 (= ine_0x7ffff2c02530 ?x571)))
 (let (($x1313 (= and_0x7ffff2c02890 (bvand node_0x7ffff2c01ea0 node_0x7ffff2c023c0))))
 (let ((?x1288 (ite (bvsgt ccso_node_0x7ffff2c01cb0 carg_node_0x7ffff2b835c0) (_ bv1 1) (_ bv0 1))))
 (let (($x381 (= isgt_0x7ffff2c02020 ?x1288)))
 (let (($x1872 (= node_0x7ffff2c01ea0 isgt_0x7ffff2c02020)))
 (let (($x461 (= ine_0x7ffff2bf55d0 (ite (and (distinct node_0x7ffff2bf5230 (_ bv0 64)) true) (_ bv1 1) (_ bv0 1)))))
 (let (($x155751 (= node_0x7ffff2bf5230 LdMem_0x7ffff2bf5390)))
 (let (($x1759 (= StMem_0x7ffff2be7b00 node_0x7ffff2be77e0)))
 (let (($x810 (= bitcast_0x7ffff2be7940 node_0x7ffff2be4560)))
 (let (($x541 (= bitcast_0x7ffff2be4700 ccso_node_0x7ffff2be4200)))
 (let (($x2019 (= StMem_0x7ffff2bdfbe0 ccso_node_0x7ffff2bdefd0)))
 (let (($x1742 (= LdMem_0x7ffff2bf5390 StMem_0x196face0)))
 (let (($x590 (= LdMem_0x7ffff2bf5390 StMem_0x196eb7c0)))
 (let (($x2159 (= LdMem_0x7ffff2bf5390 StMem_0x7ffff2be7b00)))
 (let (($x1789 (= LdMem_0x7ffff2bf5390 StMem_0x7ffff2bdfbe0)))
 (let (($x155 (= R0xbec8be0 and_0xbec9050)))
 (let (($x412 (= and_0xbec9050 (bvand R0xbea8520 R0xbec85c0))))
 (let (($x879 (= and_0xbec89d0 (bvand R0xbe9eb10 R0xbec7ff0))))
 (let (($x1916 (= R0xbec85c0 and_0xbec89d0)))
 (let (($x2073 (= R0xbec8be0 (_ bv1 1))))
 (let (($x1379 (not $x2073)))
 (let (($x1531 (or $x1379 $x1742)))
 (let (($x130 (= R0xbec98b0 and_0xbec9d00)))
 (let (($x444 (= and_0xbec9d00 (bvand R0xbea8520 R0xbec9260))))
 (let (($x1490 (= R0xbec9260 and_0xbec9630)))
 (let (($x749 (= and_0xbec9630 (bvand R0xbeaa380 R0xbec7ff0))))
 (let (($x679 (= R0xbec7ff0 and_0xbec8340)))
 (let (($x830 (= and_0xbec8340 (bvand R0xbec6760 R0xbec7b30))))
 (let (($x602 (= xor_0xbec7d10 (bvxor R0xbeb7740 (_ bv1 1)))))
 (let (($x1694 (= R0xbec7b30 xor_0xbec7d10)))
 (let (($x937 (= R0xbec98b0 (_ bv1 1))))
 (let (($x2076 (not $x937)))
 (let (($x1928 (or $x2076 $x590)))
 (let (($x861 (= and_0xbec65a0 (bvand R0xbea8520 R0xbec42b0))))
 (let (($x533 (= R0xbec60f0 and_0xbec65a0)))
 (let (($x1291 (= R0xbec60f0 (_ bv1 1))))
 (let (($x1015 (not $x1291)))
 (let (($x2030 (or $x1015 $x2159)))
 (let (($x925 (= R0xbec7330 (_ bv1 1))))
 (let (($x370 (not $x925)))
 (let (($x409 (or $x370 $x1789)))
 (let (($x2229 (= R0xbec7330 and_0xbec7920)))
 (let (($x736 (= and_0xbec7920 (bvand R0xbea8520 R0xbec6b20))))
 (let (($x290 (= and_0xbea8840 (bvand R0xbe94da0 R0xbea7b50))))
 (let (($x1655 (= R0xbea8520 and_0xbea8840)))
 (let (($x903 (= R0xbec6b20 and_0xbec70b0)))
 (let (($x2082 (= R0xbec6760 xor_0xbec6940)))
 (let (($x501 (= xor_0xbec6940 (bvxor R0xbec42b0 (_ bv1 1)))))
 (let (($x1938 (= R0xbec42b0 and_0xbec4780)))
 (let (($x652 (= and_0xbec4780 (bvand R0xbea8520 R0x7ffff2b8bbf0))))
 (let (($x1770 (= R0x7ffff2b8bbf0 and_0x7ffff2b8c0b0)))
 (let (($x645 (= and_0x7ffff2b8c0b0 (bvand R0x7ffff2b89ff0 R0x7ffff2b8b890))))
 (let (($x1248 (= R0x7ffff2b89ff0 and_0x7ffff2b8a470)))
 (let (($x554 (= and_0x7ffff2b8a470 (bvand R0x7ffff2b88600 R0x7ffff2b89ad0))))
 (let (($x760 (= xor_0x7ffff2b89ce0 (bvxor node_0x7ffff2b88d60 (_ bv1 1)))))
 (let (($x2069 (= R0x7ffff2b89ad0 xor_0x7ffff2b89ce0)))
 (let (($x2001 (= node_0x7ffff2b8b6a0 and_0x7ffff2be1470)))
 (let (($x623 (= ine_0x7ffff2be1120 ?x571)))
 (let (($x1357 (= node_0x7ffff2be0f80 ine_0x7ffff2be1120)))
 (let (($x644 (= and_0x7ffff2be1470 (bvand node_0x7ffff2be0a90 node_0x7ffff2be0f80))))
 (let ((?x655 (ite (bvsgt ccso_node_0x7ffff2be08a0 carg_node_0x7ffff2b835c0) (_ bv1 1) (_ bv0 1))))
 (let (($x388 (= isgt_0x7ffff2be0c10 ?x655)))
 (let (($x1141 (= node_0x7ffff2be0a90 isgt_0x7ffff2be0c10)))
 (let (($x428 (= and_0xbec70b0 (bvand R0xbeb7740 R0xbec6760))))
 (let (($x124 (= R0xbeb7740 and_0xbeb7b40)))
 (let (($x627 (= and_0xbeb7b40 (bvand R0xbea8520 R0x7ffff2b892b0))))
 (let (($x2098 (= R0x7ffff2b892b0 and_0x7ffff2b896c0)))
 (let (($x528 (= ccso_node_0x7ffff2bdc410 (_ bv1 32))))
 (let ((?x473 (ite $x528 (_ bv1 1) (_ bv0 1))))
 (let (($x378 (= ieq_0x7ffff2bdc630 ?x473)))
 (let (($x2234 (= node_0x7ffff2b88d60 ieq_0x7ffff2bdc630)))
 (let (($x875 (= and_0x7ffff2b896c0 (bvand R0x7ffff2b88600 R0x7ffff2b88f50))))
 (let (($x2175 (= R0x7ffff2b88600 and_0x7ffff2b889d0)))
 (let (($x901 (= node_0x7ffff2b880b0 ine_0x7ffff2bda930)))
 (let (($x417 (= ine_0x7ffff2bda930 (ite (and (distinct node_0x7ffff2bda590 (_ bv0 64)) true) (_ bv1 1) (_ bv0 1)))))
 (let (($x1001 (= node_0x7ffff2bda590 LdMem_0x7ffff2bda6f0)))
 (let (($x1400 (= StMem_0x196face0 pcso_node_0x196fab30)))
 (let (($x1514 (= StMem_0x196eb7c0 pcso_node_0x196eb680)))
 (let (($x1915 (= LdMem_0x7ffff2bda6f0 StMem_0x196face0)))
 (let (($x1151 (= LdMem_0x7ffff2bda6f0 StMem_0x196eb7c0)))
 (let (($x456 (or $x1151 $x1915)))
 (let (($x437 (= and_0xbeaa1c0 (bvand R0xbe9eb10 R0xbea8520))))
 (let (($x1303 (= R0xbea9f80 and_0xbeaa1c0)))
 (let (($x2128 (= R0xbea9f80 (_ bv1 1))))
 (let (($x141 (not $x2128)))
 (let (($x1286 (or $x141 $x1915)))
 (let (($x1976 (= R0xbeaa7b0 and_0xbeaab40)))
 (let (($x421 (= and_0xbeaab40 (bvand R0xbea8520 R0xbeaa380))))
 (let (($x2000 (= R0xbeaa380 xor_0xbeaa560)))
 (let (($x365 (= xor_0xbeaa560 (bvxor R0xbe9eb10 (_ bv1 1)))))
 (let (($x431 (= and_0xbe9ee30 (bvand R0xbe94da0 R0x7ffff2b83ef0))))
 (let (($x938 (= R0xbe9eb10 and_0xbe9ee30)))
 (let (($x253 (= and_0x7ffff2b889d0 (bvand R0x7ffff2b87990 R0x7ffff2b882a0))))
 (let (($x1940 (= R0x7ffff2b87990 and_0x7ffff2b87d20)))
 (let (($x1714 (= R0x7ffff2b876a0 node_0x7ffff2b874e0)))
 (let (($x335 (= islt_0x7ffff2bd98c0 ?x334)))
 (let (($x1795 (= node_0x7ffff2bc2df0 f2si_0x7ffff2bc2f90)))
 (let ((?x339 ((_ extract 31 0) node_0x7ffff2bc2a20)))
 (let (($x340 (= f2si_0x7ffff2bc2f90 ?x339)))
 (let (($x1970 (= node_0x7ffff2bc2a20 fadd_0x7ffff2bc2bc0)))
 (let (($x345 (= fadd_0x7ffff2bc2bc0 (bvadd node_0x7ffff2bc2620 (_ bv1 64)))))
 (let (($x1751 (= node_0x7ffff2bc2620 fdiv_0x7ffff2bc27c0)))
 (let (($x354 (or (or (= node_0x7ffff2bb8480 (_ bv0 64)) (= node_0x7ffff2bbbd50 (_ bv0 64))) (and (distinct fdiv_0x7ffff2bc27c0 (_ bv0 64)) true))))
 (let (($x350 (= fdiv_0x7ffff2bc27c0 (bvsdiv node_0x7ffff2bb8480 node_0x7ffff2bbbd50))))
 (let (($x355 (and $x350 $x354)))
 (let (($x1886 (= node_0x7ffff2bb8480 fsub_0x7ffff2bb8620)))
 (let (($x1999 (= node_0x7ffff2bb8010 LdMem_0x7ffff2bb81b0)))
 (let (($x2079 (= StMem_0xbdb5ca0 pcso_node_0xbdb5b20)))
 (let (($x1626 (= LdMem_0x7ffff2bb81b0 StMem_0xbdb5ca0)))
 (let (($x361 (= fsub_0x7ffff2bb8620 (bvsub node_0x7ffff2bb77a0 node_0x7ffff2bb8010))))
 (let (($x2186 (= node_0x7ffff2bb77a0 LdMem_0x7ffff2bb7940)))
 (let (($x2224 (= LdMem_0x7ffff2bb7940 StMem_0xbdac0c0)))
 (let (($x663 (= and_0x7ffff2b87d20 (bvand R0x7ffff2b86dd0 R0x7ffff2b876a0))))
 (let (($x1635 (= R0x7ffff2b86dd0 and_0x7ffff2b87120)))
 (let (($x683 (= R0x7ffff2b86a70 node_0x7ffff2b868b0)))
 (let (($x288 (= islt_0x7ffff2bd9550 ?x287)))
 (let (($x1748 (= node_0x7ffff2bc21e0 f2si_0x7ffff2bc2380)))
 (let ((?x292 ((_ extract 31 0) node_0x7ffff2bc1e30)))
 (let (($x293 (= f2si_0x7ffff2bc2380 ?x292)))
 (let (($x387 (= node_0x7ffff2bc1e30 fadd_0x7ffff2bc1fb0)))
 (let (($x298 (= fadd_0x7ffff2bc1fb0 (bvadd node_0x7ffff2bc1a00 (_ bv1 64)))))
 (let (($x1573 (= node_0x7ffff2bc1a00 fdiv_0x7ffff2bc1ba0)))
 (let (($x307 (or (or (= node_0x7ffff2bb6fd0 (_ bv0 64)) (= node_0x7ffff2bbbd50 (_ bv0 64))) (and (distinct fdiv_0x7ffff2bc1ba0 (_ bv0 64)) true))))
 (let (($x303 (= fdiv_0x7ffff2bc1ba0 (bvsdiv node_0x7ffff2bb6fd0 node_0x7ffff2bbbd50))))
 (let (($x308 (and $x303 $x307)))
 (let (($x1394 (= node_0x7ffff2bb6fd0 fsub_0x7ffff2bb7170)))
 (let (($x2192 (= node_0x7ffff2bb6b80 LdMem_0x7ffff2bb6d00)))
 (let (($x1108 (= StMem_0xbd64aa0 pcso_node_0xbda11c0)))
 (let (($x1867 (= LdMem_0x7ffff2bb6d00 StMem_0xbd64aa0)))
 (let (($x314 (= fsub_0x7ffff2bb7170 (bvsub node_0x7ffff2bb6300 node_0x7ffff2bb6b80))))
 (let (($x1771 (= node_0x7ffff2bb6300 LdMem_0x7ffff2bb6480)))
 (let (($x1631 (= LdMem_0x7ffff2bb6480 StMem_0xbda29e0)))
 (let (($x462 (= and_0x7ffff2b87120 (bvand R0x7ffff2b86230 R0x7ffff2b86a70))))
 (let (($x2179 (= R0x7ffff2b86230 and_0x7ffff2b86540)))
 (let (($x210 (= and_0x7ffff2b86540 (bvand R0x7ffff2b85620 R0x7ffff2b85ed0))))
 (let (($x1607 (= R0x7ffff2b85620 or_0x7ffff2b85930)))
 (let ((?x800 (bvor R0x7ffff2b848f0 R0x7ffff2b84fe0)))
 (let (($x727 (= or_0x7ffff2b85930 ?x800)))
 (let (($x158140 (= R0x7ffff2b848f0 xor_0x7ffff2b84b00)))
 (let (($x854 (= xor_0x7ffff2b84b00 (bvxor node_0x7ffff2b84430 (_ bv1 1)))))
 (let (($x177 (= islt_0x7ffff2bd6840 (ite (bvslt (_ bv0 32) ccso_node_0x7ffff2bd6620) (_ bv1 1) (_ bv0 1)))))
 (let (($x1492 (= node_0x7ffff2b84430 islt_0x7ffff2bd6840)))
 (let (($x2215 (= R0x7ffff2b84fe0 and_0x7ffff2b85300)))
 (let (($x1445 (= R0x7ffff2b83ef0 node_0x7ffff2b84430)))
 (let (($x567 (= and_0x7ffff2b85300 (bvand R0x7ffff2b83ef0 R0x7ffff2b84e00))))
 (let (($x1953 (= R0x7ffff2b84e00 xor_0x7ffff2b83a60)))
 (let (($x876 (= xor_0x7ffff2b83a60 (bvxor node_0x7ffff2b84700 (_ bv1 1)))))
 (let (($x201 (= islt_0x7ffff2bd8ce0 (ite (bvslt (_ bv1 32) ccso_node_0x7ffff2bd8ac0) (_ bv1 1) (_ bv0 1)))))
 (let (($x2015 (= node_0x7ffff2b84700 islt_0x7ffff2bd8ce0)))
 (let (($x913 (= R0x7ffff2b85ed0 node_0x7ffff2b85d10)))
 (let (($x1597 (= node_0x7ffff2b85d10 islt_0x7ffff2bd9150)))
 (let (($x208 (= islt_0x7ffff2bd9150 (ite (bvslt (_ bv0 32) node_0x7ffff2bc15c0) (_ bv1 1) (_ bv0 1)))))
 (let (($x900 (= node_0x7ffff2bc15c0 f2si_0x7ffff2bc1760)))
 (let ((?x212 ((_ extract 31 0) node_0x7ffff2bc1210)))
 (let (($x213 (= f2si_0x7ffff2bc1760 ?x212)))
 (let (($x1142 (= node_0x7ffff2bc1210 fadd_0x7ffff2bc1390)))
 (let (($x219 (= fadd_0x7ffff2bc1390 (bvadd node_0x7ffff2bc0df0 (_ bv1 64)))))
 (let (($x1951 (= node_0x7ffff2bc0df0 fdiv_0x7ffff2bc0f90)))
 (let (($x1646 (= node_0x7ffff2bbbd50 fmul_0x7ffff2bbbeb0)))
 (let (($x259 (= ccso_node_0x7ffff2bbb910 (_ bv0 64))))
 (let (($x258 (= node_0x7ffff2bba980 (_ bv0 64))))
 (let (($x260 (or $x258 $x259)))
 (let ((?x256 (bvmul node_0x7ffff2bba980 ccso_node_0x7ffff2bbb910)))
 (let (($x257 (= fmul_0x7ffff2bbbeb0 ?x256)))
 (let (($x263 (and $x257 (or $x260 (and (distinct fmul_0x7ffff2bbbeb0 (_ bv0 64)) true)))))
 (let (($x609 (= node_0x7ffff2bba980 fdiv_0x7ffff2bbab20)))
 (let (($x1965 (= node_0x7ffff2bb8dc0 LdMem_0x7ffff2bb8f40)))
 (let (($x273 (or (or (= (_ bv1 64) (_ bv0 64)) (= node_0x7ffff2bb8dc0 (_ bv0 64))) (and (distinct fdiv_0x7ffff2bbab20 (_ bv0 64)) true))))
 (let (($x274 (and (= fdiv_0x7ffff2bbab20 (bvsdiv (_ bv1 64) node_0x7ffff2bb8dc0)) $x273)))
 (let (($x227 (= node_0x7ffff2bbbd50 (_ bv0 64))))
 (let (($x226 (= node_0x7ffff2bb5b00 (_ bv0 64))))
 (let (($x228 (or $x226 $x227)))
 (let (($x225 (= fdiv_0x7ffff2bc0f90 (bvsdiv node_0x7ffff2bb5b00 node_0x7ffff2bbbd50))))
 (let (($x231 (and $x225 (or $x228 (and (distinct fdiv_0x7ffff2bc0f90 (_ bv0 64)) true)))))
 (let (($x99 (= node_0x7ffff2bb5b00 fsub_0x7ffff2bb5ca0)))
 (let (($x1272 (= node_0x7ffff2bb56b0 LdMem_0x7ffff2bb5830)))
 (let (($x935 (= StMem_0x19689e90 pcso_node_0xbd64880)))
 (let (($x1212 (= LdMem_0x7ffff2bb5830 StMem_0x19689e90)))
 (let (($x237 (= fsub_0x7ffff2bb5ca0 (bvsub node_0x7ffff2bb4e90 node_0x7ffff2bb56b0))))
 (let (($x659 (= node_0x7ffff2bb4e90 LdMem_0x7ffff2bb5010)))
 (let (($x120 (= LdMem_0x7ffff2bb5010 StMem_0xbd62f80)))
 (and (or (not (= R0x7ffff2b827c0 (_ bv1 1))) $x120) $x120 (= StMem_0xbd62f80 pcso_node_0x196dad70) $x659 $x237 (or (not (= R0x7ffff2b827c0 (_ bv1 1))) $x1212) $x1212 $x935 $x1272 $x99 $x231 $x274 $x1965 $x609 $x263 $x1646 $x1951 $x219 $x1142 $x213 $x900 $x208 $x1597 $x913 $x2015 $x201 $x876 $x1953 $x567 $x1445 $x2215 $x1492 $x177 $x854 $x158140 $x727 $x1607 $x210 $x2179 $x462 (or (not (= R0x7ffff2b827c0 (_ bv1 1))) $x1631) $x1631 (= StMem_0xbda29e0 pcso_node_0x196daeb0) $x1771 $x314 (or (not (= R0x7ffff2b827c0 (_ bv1 1))) $x1867) $x1867 $x1108 $x2192 $x1394 $x308 $x1573 $x298 $x387 $x293 $x1748 $x288 (= node_0x7ffff2b868b0 islt_0x7ffff2bd9550) $x683 $x1635 $x663 (or (not (= R0x7ffff2b827c0 (_ bv1 1))) $x2224) $x2224 (= StMem_0xbdac0c0 pcso_node_0x196daff0) $x2186 $x361 (or (not (= R0x7ffff2b827c0 (_ bv1 1))) $x1626) $x1626 $x2079 $x1999 $x1886 $x355 $x1751 $x345 $x1970 $x340 $x1795 $x335 (= node_0x7ffff2b874e0 islt_0x7ffff2bd98c0) $x1714 $x1940 $x253 $x938 $x431 $x365 $x2000 $x421 $x1976 (or (not (= R0xbeaa7b0 (_ bv1 1))) $x1151) $x1286 $x1303 $x437 $x456 $x1514 $x1400 $x1001 $x417 $x901 (= R0x7ffff2b882a0 node_0x7ffff2b880b0) $x2175 $x875 $x2234 $x378 (= R0x7ffff2b88f50 node_0x7ffff2b88d60) $x2098 $x627 $x124 $x428 $x1141 $x388 $x644 $x1357 $x623 $x2001 (= R0x7ffff2b8b890 node_0x7ffff2b8b6a0) $x2069 $x760 $x554 $x1248 $x645 $x1770 $x652 $x1938 $x501 $x2082 $x903 $x1655 $x290 $x736 $x2229 $x409 $x2030 $x533 $x861 $x1928 $x1694 $x602 $x830 $x679 $x749 $x1490 $x444 $x130 $x1531 $x1916 $x879 $x412 $x155 (or $x1789 $x2159 $x590 $x1742) $x2019 $x541 (and (distinct ccso_node_0x7ffff2be4200 (_ bv0 64)) true) (= node_0x7ffff2be4560 bitcast_0x7ffff2be4700) $x810 (= node_0x7ffff2be77e0 bitcast_0x7ffff2be7940) $x1759 $x155751 $x461 (= node_0x7ffff2b9a9c0 ine_0x7ffff2bf55d0) $x1872 $x381 $x1313 (= node_0x7ffff2c023c0 ine_0x7ffff2c02530) $x1321 (= node_0x7ffff2b9e680 and_0x7ffff2c02890) $x155749 $x1077 (= node_0x7ffff2b97e60 islt_0x7ffff2bf04e0) $x396 (= node_0x7ffff2b955b0 islt_0x7ffff2beaa70) $x1266 (= node_0x7ffff2b91e50 islt_0x7ffff2be8e60) $x928 $x1366 $x535 $x1817 $x681)))))))))))))))))))))))))))))))))))))))))))))))))))))))))))))))))))))))))))))))))))))))))))))))))))))))))))))))))))))))))))))))))))))))))))))))))))))))))))))))))))))))))))))))))))))))))))))))))))))))
(assert
 (= parg_node_0x1151b690_CS0x404ac00 node_0x19775050))
(assert
 (let (($x2233 (= node_0x19775050 LdMem_0x19772c00)))
 (let (($x1678 (= StMem_0x197387f0 parg_node_0x197389a0)))
 (let (($x158146 (= StMem_0x1971ba40 pcso_node_0x1971b890)))
 (let (($x1510 (= LdMem_0x19772c00 StMem_0x197387f0)))
 (let (($x1565 (= LdMem_0x19772c00 StMem_0x1971ba40)))
 (let (($x400 (= LdMem_0x19772c00 StMem_0x196ffcf0)))
 (let (($x2045 (= R0xbeca090 and_0xbeca760)))
 (let (($x1221 (= and_0xbeca760 (bvand R0xbeb5b90 R0xbec7330))))
 (let (($x2060 (= R0xbeb5b90 or_0xbeb5f90)))
 (let (($x1568 (= R0xbeb54b0 and_0xbeb5930)))
 (let (($x1237 (= and_0xbeb5930 (bvand R0xbea48a0 R0xbeb4000))))
 (let (($x1348 (= R0xbeb4000 and_0xbeb42f0)))
 (let (($x1101 (= and_0xbeb42f0 (bvand R0xbeae030 R0xbeb2490))))
 (let (($x1106 (= and_0xbeb2780 (bvand R0xbea3430 R0x7ffff2b83ef0))))
 (let (($x1918 (= R0xbeb2490 and_0xbeb2780)))
 (let ((?x1226 (bvor R0xbeb4e70 R0xbeb54b0)))
 (let (($x1227 (= or_0xbeb5f90 ?x1226)))
 (let (($x1499 (= R0xbeb4e70 and_0xbeb5210)))
 (let (($x1232 (= and_0xbeb5210 (bvand R0xbea41b0 R0xbeb31d0))))
 (let (($x1673 (= R0xbeb31d0 and_0xbeb35a0)))
 (let (($x1090 (= and_0xbeb2310 (bvand R0xbea3100 R0x7ffff2b83ef0))))
 (let (($x452 (= R0xbeb2130 and_0xbeb2310)))
 (let (($x1085 (= and_0xbeb35a0 (bvand R0xbeae030 R0xbeb2130))))
 (let (($x221 (= and_0xbeae330 (bvand R0xbeab3d0 R0x7ffff2b83ef0))))
 (let (($x897 (= R0xbeae030 and_0xbeae330)))
 (let (($x2209 (= R0xbeca090 (_ bv1 1))))
 (let (($x137 (not $x2209)))
 (let (($x2048 (or $x137 $x1510)))
 (let (($x1210 (= and_0xbed7ae0 (bvand R0xbeb91b0 R0xbecb1c0))))
 (let (($x1586 (= R0xbed62c0 and_0xbed7ae0)))
 (let (($x2039 (= R0xbed62c0 (_ bv1 1))))
 (let (($x998 (not $x2039)))
 (let (($x113 (or $x998 $x1565)))
 (let (($x1409 (= R0xbed87f0 and_0xbed8d00)))
 (let (($x1161 (= and_0xbed8d00 (bvand R0xbecb1c0 R0xbed81d0))))
 (let (($x1165 (= and_0xbecb670 (bvand R0xbe9d6c0 R0xbec8be0))))
 (let (($x1477 (= R0xbecb1c0 and_0xbecb670)))
 (let (($x1428 (= R0xbed81d0 and_0xbed8520)))
 (let (($x1170 (= and_0xbed8520 (bvand R0xbed7ce0 R0x7ffff2b83ef0))))
 (let (($x1933 (= R0xbed7ce0 xor_0xbed7ec0)))
 (let (($x1175 (= xor_0xbed7ec0 (bvxor R0xbeb91b0 (_ bv1 1)))))
 (let (($x1949 (= R0xbeb91b0 and_0xbeb9780)))
 (let (($x1180 (= and_0xbeb9780 (bvand R0xbeab3d0 R0x7ffff2b8ae50))))
 (let (($x383 (= and_0xbeab790 (bvand R0xbe9d6c0 R0xbea9f80))))
 (let (($x1412 (= R0xbeab3d0 and_0xbeab790)))
 (let (($x342 (= R0x7ffff2b8ae50 and_0x7ffff2b8b310)))
 (let (($x1185 (= and_0x7ffff2b8b310 (bvand R0x7ffff2b892b0 R0x7ffff2b8a930))))
 (let (($x1530 (= R0x7ffff2b8a930 xor_0x7ffff2b8ab40)))
 (let (($x1190 (= xor_0x7ffff2b8ab40 (bvxor node_0x7ffff2b8a740 (_ bv1 1)))))
 (let (($x1939 (= node_0x7ffff2b8a740 ieq_0x7ffff2bdff80)))
 (let (($x1196 (= ieq_0x7ffff2bdff80 (ite (= node_0x7ffff2bdd820 (_ bv0 64)) (_ bv1 1) (_ bv0 1)))))
 (let (($x2096 (= node_0x7ffff2bdd820 bitcast_0x7ffff2bdd9c0)))
 (let (($x1200 (= bitcast_0x7ffff2bdd9c0 node_0x7ffff2bdd430)))
 (and $x1200 (= node_0x7ffff2bdd430 LdMem_0x7ffff2bda6f0) $x2096 $x1196 $x1939 $x1190 $x1530 $x1185 $x342 $x1412 $x383 $x1180 $x1949 $x1175 $x1933 $x1170 $x1428 $x1477 $x1165 $x1161 $x1409 (or (not (= R0xbed87f0 (_ bv1 1))) $x400) $x113 $x1586 $x1210 $x2048 $x897 $x221 $x1085 $x452 $x1090 $x1673 $x1232 $x1499 $x1227 $x1918 $x1106 $x1101 $x1348 $x1237 $x1568 $x2060 $x1221 $x2045 (or $x400 $x1565 $x1510) (= StMem_0x196ffcf0 pcso_node_0x196fd890) $x158146 $x1678 $x2233)))))))))))))))))))))))))))))))))))))))))))))))))))))))
(assert
 (= return_node_0x7ffff2c309b0_CS0x404ac00 ccso_node_0x7ffff2c01cb0))
(assert
 (= parg_node_0x1151b690_CS0x404a7e0 node_0x19766810))
(assert
 (let (($x1941 (= node_0x19766810 LdMem_0x197643c0)))
 (let (($x733 (= LdMem_0x197643c0 StMem_0x197387f0)))
 (let (($x1293 (= LdMem_0x197643c0 StMem_0x1971ba40)))
 (let (($x1910 (= LdMem_0x197643c0 StMem_0x196ffcf0)))
 (and (or (not (= R0xbed87f0 (_ bv1 1))) $x1910) (or (not (= R0xbed62c0 (_ bv1 1))) $x1293) (or (not (= R0xbeca090 (_ bv1 1))) $x733) (or $x1910 $x1293 $x733) $x1941))))))
(assert
 (= return_node_0x7ffff2c309b0_CS0x404a7e0 ccso_node_0x7ffff2bfd690))
(assert
 (= parg_node_0x1151b690_CS0x4041bb0 node_0x196eeb60))
(assert
 (let (($x1657 (= node_0x196eeb60 LdMem_0x196eca10)))
 (let (($x1439 (= StMem_0x196dbc40 parg_node_0x196dbd50)))
 (let (($x1570 (= LdMem_0x196eca10 StMem_0x196dbc40)))
 (and (or (not (= R0x7ffff2b827c0 (_ bv1 1))) $x1570) $x1570 $x1439 $x1657)))))
(assert
 (= return_node_0x7ffff2c309b0_CS0x4041bb0 ccso_node_0x7ffff2bd6620))
(assert
 (= parg_node_0x1151b690_CS0x4049a80 node_0x19704cf0))
(assert
 (let (($x2148 (= node_0x19704cf0 LdMem_0x19702970)))
 (let (($x101 (= LdMem_0x19702970 StMem_0x196dbc40)))
 (and (or (not (= R0x7ffff2b827c0 (_ bv1 1))) $x101) $x101 $x2148))))
(assert
 (= return_node_0x7ffff2c309b0_CS0x4049a80 ccso_node_0x7ffff2bd8ac0))
(assert
 (= parg_node_0x1151b690_CS0x4043330 node_0x1970e0c0))
(assert
 (let (($x1618 (= LdMem_0x1970bd40 StMem_0x196ffcf0)))
 (and (or (not (= R0xbeae030 (_ bv1 1))) $x1618) $x1618 (= node_0x1970e0c0 LdMem_0x1970bd40))))
(assert
 (= return_node_0x7ffff2c309b0_CS0x4043330 ccso_node_0x7ffff2bdc410))
(assert
 (= parg_node_0x1151b690_CS0x4044400 node_0x1971c550))
(assert
 (let (($x133 (= node_0x1971c550 LdMem_0x1971a1d0)))
 (let (($x2212 (= LdMem_0x1971a1d0 StMem_0x196ffcf0)))
 (and (or (not (= R0xbeae030 (_ bv1 1))) $x2212) $x2212 $x133))))
(assert
 (= return_node_0x7ffff2c309b0_CS0x4044400 ccso_node_0x7ffff2be08a0))
(assert
 (and (distinct node_0x7ffff2baa200 (_ bv0 64)) true))
(minimize node_0x7ffff2c01ea0)
(maximize and_0xbeaa1c0)
(maximize LdMem_0x7ffff2bb81b0)
(maximize parg_node_0x1151b690_CS0x4043330)
(minimize R0xbeb5b90)
(minimize node_0x7ffff2bc2a20)
(maximize and_0xbeab790)
(minimize and_0xbeb5930)
(maximize parg_node_0x1151b690_CS0x404ac00)
(minimize StMem_0x196eb7c0)
(minimize R0xbe94da0)
(minimize R0x7ffff2b84fe0)
(maximize pcso_node_0xbdb5b20)
(maximize R0xbec42b0)
(minimize and_0x7ffff2c02890)
(minimize LdMem_0x7ffff2bda6f0)
(maximize R0xbeb31d0)
(maximize and_0xbeb5930)
(minimize or_0xbeb5f90)
(maximize ine_0x7ffff2be1120)
(minimize node_0x7ffff2b9e680)
(maximize node_0x7ffff2bc1a00)
(minimize node_0x7ffff2b97e60)
(maximize isgt_0x7ffff2c02020)
(minimize and_0xbe9ee30)
(minimize R0x7ffff2b85ed0)
(maximize R0xbea7b50)
(maximize pcso_node_0x196daff0)
(maximize StMem_0xbdb5ca0)
(maximize node_0x7ffff2bbbd50)
(minimize R0xbeaa380)
(minimize R0xbec9260)
(minimize and_0xbec70b0)
(maximize ieq_0x7ffff2bfd8b0)
(maximize fmul_0x7ffff2bbbeb0)
(minimize R0xbeb7740)
(maximize xor_0x7ffff2b84b00)
(maximize return_node_0x7ffff2c309b0_CS0x4044400)
(minimize node_0x7ffff2bb8dc0)
(maximize StMem_0x196dbc40)
(minimize R0xbeb54b0)
(minimize R0xbea9f80)
(maximize and_0xbecb670)
(maximize R0xbea41b0)
(maximize ccso_node_0x7ffff2bbb910)
(maximize node_0x7ffff2bc15c0)
(minimize R0xbecb1c0)
(minimize StMem_0x196ffcf0)
(maximize f2si_0x7ffff2bc2380)
(minimize ccso_node_0x7ffff2be08a0)
(minimize R0xbeb91b0)
(maximize R0xbeb91b0)
(minimize R0x7ffff2b876a0)
(minimize return_node_0x7ffff2c309b0_CS0x4049a80)
(minimize R0xbe9eb10)
(maximize ccso_node_0x7ffff2bdefd0)
(minimize parg_node_0x1151b690_CS0x4041bb0)
(maximize islt_0x7ffff2be7e30)
(maximize LdMem_0x19702970)
(minimize and_0x7ffff2b85300)
(minimize R0x7ffff2b8bbf0)
(minimize and_0xbeb2310)
(minimize islt_0x7ffff2bf04e0)
(maximize pcso_node_0x196daeb0)
(maximize R0xbeaa7b0)
(maximize pcso_node_0x196eb680)
(maximize R0xbea3100)
(minimize bitcast_0x7ffff2be4700)
(minimize carg_node_0x7ffff2b83740)
(minimize node_0x7ffff2bba980)
(maximize islt_0x7ffff2bd98c0)
(maximize node_0x7ffff2bb6300)
(maximize and_0x7ffff2b8b310)
(maximize return_node_0x7ffff2c309b0_CS0x404a7e0)
(minimize ccso_node_0x7ffff2bdc410)
(maximize node_0x7ffff2b84700)
(minimize pcso_node_0x1971b890)
(minimize R0xbeb4e70)
(maximize ccso_node_0x7ffff2bfd690)
(maximize and_0xbec4780)
(minimize R0x7ffff2b88600)
(maximize node_0x1970e0c0)
(minimize LdMem_0x1971a1d0)
(minimize node_0x19775050)
(maximize R0xbeb2130)
(minimize R0x7ffff2b84e00)
(maximize R0x7ffff2b83ef0)
(maximize parg_node_0x1151b690_CS0x4049a80)
(minimize R0xbec60f0)
(minimize node_0x19766810)
(maximize node_0x7ffff2be4560)
(minimize and_0xbec9050)
(maximize and_0xbec70b0)
(maximize StMem_0x1971ba40)
(minimize fadd_0x7ffff2bc2bc0)
(minimize fmul_0x7ffff2bbbeb0)
(maximize fdiv_0x7ffff2bc1ba0)
(check-sat)
(get-objectives)
